nN = 7;
nR = 15;
nH = 1;

a = [[18, 21, 7, 14, 17, 20, 8, 10, 16, 22, 24, 7, 17, 7, 24], [14, 18, 19, 5, 22, 25, 21, 13, 9, 21, 13, 22, 5, 20, 18], [16, 20, 16, 13, 9, 20, 9, 19, 8, 7, 21, 23, 5, 19, 20], [13, 17, 6, 18, 7, 17, 18, 11, 18, 19, 11, 7, 21, 23, 18], [6, 5, 11, 22, 7, 16, 8, 24, 12, 18, 23, 13, 17, 15, 21], [11, 16, 10, 13, 11, 9, 5, 20, 21, 10, 7, 23, 12, 17, 15], [24, 9, 22, 23, 25, 20, 25, 10, 15, 25, 15, 16, 10, 21, 11]];
c = [[[0, 0, 0, 0, 0, 0, 0, 0, 0, 0, 0, 0, 0, 0, 0], [34, 50, 49, 40, 34, 32, 37, 36, 42, 36, 34, 30, 40, 36, 42], [43, 45, 47, 40, 46, 50, 38, 49, 45, 46, 30, 47, 37, 34, 32], [44, 36, 35, 44, 41, 37, 30, 30, 46, 40, 31, 31, 32, 31, 31], [40, 46, 33, 42, 33, 41, 37, 40, 44, 31, 31, 35, 35, 45, 33], [37, 35, 36, 37, 39, 35, 34, 46, 44, 33, 41, 33, 38, 35, 40], [47, 41, 34, 50, 38, 46, 44, 36, 45, 35, 48, 34, 40, 36, 45]], [[0, 0, 0, 0, 0, 0, 0, 0, 0, 0, 0, 0, 0, 0, 0], [0, 0, 0, 0, 0, 0, 0, 0, 0, 0, 0, 0, 0, 0, 0], [40, 40, 49, 50, 30, 31, 31, 33, 41, 40, 42, 34, 46, 34, 37], [43, 37, 46, 32, 41, 40, 38, 30, 43, 45, 36, 50, 40, 47, 30], [35, 49, 47, 32, 35, 48, 42, 41, 30, 47, 46, 47, 36, 36, 35], [44, 45, 48, 42, 49, 44, 38, 30, 48, 49, 44, 33, 31, 40, 49], [50, 30, 48, 43, 36, 40, 33, 39, 48, 44, 41, 36, 50, 40, 44]], [[0, 0, 0, 0, 0, 0, 0, 0, 0, 0, 0, 0, 0, 0, 0], [0, 0, 0, 0, 0, 0, 0, 0, 0, 0, 0, 0, 0, 0, 0], [0, 0, 0, 0, 0, 0, 0, 0, 0, 0, 0, 0, 0, 0, 0], [37, 44, 46, 33, 40, 32, 34, 32, 38, 34, 40, 36, 45, 50, 44], [36, 37, 38, 38, 31, 34, 42, 44, 48, 31, 33, 37, 40, 36, 48], [38, 38, 49, 32, 46, 42, 50, 48, 50, 33, 46, 43, 31, 45, 47], [30, 42, 32, 37, 35, 36, 33, 47, 38, 42, 36, 34, 31, 48, 37]], [[0, 0, 0, 0, 0, 0, 0, 0, 0, 0, 0, 0, 0, 0, 0], [0, 0, 0, 0, 0, 0, 0, 0, 0, 0, 0, 0, 0, 0, 0], [0, 0, 0, 0, 0, 0, 0, 0, 0, 0, 0, 0, 0, 0, 0], [0, 0, 0, 0, 0, 0, 0, 0, 0, 0, 0, 0, 0, 0, 0], [39, 40, 39, 43, 45, 39, 46, 34, 42, 32, 35, 44, 33, 36, 47], [37, 38, 30, 47, 43, 45, 42, 46, 32, 43, 39, 43, 31, 47, 36], [45, 49, 39, 31, 33, 46, 40, 38, 43, 38, 48, 49, 44, 33, 47]], [[0, 0, 0, 0, 0, 0, 0, 0, 0, 0, 0, 0, 0, 0, 0], [0, 0, 0, 0, 0, 0, 0, 0, 0, 0, 0, 0, 0, 0, 0], [0, 0, 0, 0, 0, 0, 0, 0, 0, 0, 0, 0, 0, 0, 0], [0, 0, 0, 0, 0, 0, 0, 0, 0, 0, 0, 0, 0, 0, 0], [0, 0, 0, 0, 0, 0, 0, 0, 0, 0, 0, 0, 0, 0, 0], [50, 43, 41, 35, 45, 47, 46, 44, 30, 35, 36, 38, 35, 42, 34], [47, 49, 41, 30, 50, 49, 41, 35, 37, 48, 37, 33, 43, 39, 44]], [[0, 0, 0, 0, 0, 0, 0, 0, 0, 0, 0, 0, 0, 0, 0], [0, 0, 0, 0, 0, 0, 0, 0, 0, 0, 0, 0, 0, 0, 0], [0, 0, 0, 0, 0, 0, 0, 0, 0, 0, 0, 0, 0, 0, 0], [0, 0, 0, 0, 0, 0, 0, 0, 0, 0, 0, 0, 0, 0, 0], [0, 0, 0, 0, 0, 0, 0, 0, 0, 0, 0, 0, 0, 0, 0], [0, 0, 0, 0, 0, 0, 0, 0, 0, 0, 0, 0, 0, 0, 0], [33, 43, 30, 42, 40, 48, 38, 41, 37, 39, 37, 46, 45, 43, 35]], [[0, 0, 0, 0, 0, 0, 0, 0, 0, 0, 0, 0, 0, 0, 0], [0, 0, 0, 0, 0, 0, 0, 0, 0, 0, 0, 0, 0, 0, 0], [0, 0, 0, 0, 0, 0, 0, 0, 0, 0, 0, 0, 0, 0, 0], [0, 0, 0, 0, 0, 0, 0, 0, 0, 0, 0, 0, 0, 0, 0], [0, 0, 0, 0, 0, 0, 0, 0, 0, 0, 0, 0, 0, 0, 0], [0, 0, 0, 0, 0, 0, 0, 0, 0, 0, 0, 0, 0, 0, 0], [0, 0, 0, 0, 0, 0, 0, 0, 0, 0, 0, 0, 0, 0, 0]]];
Q = [[22], [23], [26], [30], [27], [27], [28]];

q = [[[5], [7], [8], [18], [22], [10], [12], [12], [15], [22], [13], [25], [5], [6], [7]], [[11], [13], [11], [14], [8], [6], [11], [9], [19], [10], [23], [17], [13], [24], [8]], [[13], [8], [19], [21], [12], [15], [7], [10], [20], [14], [18], [16], [5], [21], [25]], [[19], [19], [11], [18], [13], [18], [23], [14], [19], [17], [22], [13], [22], [22], [12]], [[5], [16], [21], [16], [19], [14], [17], [15], [18], [25], [9], [14], [13], [15], [11]], [[18], [11], [13], [23], [18], [21], [11], [9], [15], [6], [13], [17], [14], [21], [20]], [[6], [24], [21], [14], [19], [15], [10], [24], [13], [24], [14], [22], [16], [18], [5]]];
p = [0.3, 0.26, 0.73, 0.96, 0.34, 0.35, 0.55, 0.17, 0.24, 0.48, 0.27, 0.18, 0.3, 0.23, 0.0];
